1 1 2 0
1 1 -3 0
1 -1 -4 0
1 2 3 0
1 2 4 0
1 -2 1 0
1 -2 -5 0
1 6 -7 0
1 -6 8 0
1 -6 -9 0
1 -6 3 0
1 -6 10 0
1 6 11 0
1 -6 12 0
1 -6 5 0
1 -9 -7 0
1 -9 -8 0
1 -9 3 0
1 9 -4 0
1 -9 10 0
1 -9 -6 0
1 -9 5 0
1 -4 13 0
1 -4 -14 0
1 4 9 0
1 -4 2 0
1 -4 -15 0
1 4 -16 0
1 4 5 0
1 -5 -17 0
1 5 13 0
1 -5 -14 0
1 -5 -18 0
1 5 -9 0
1 -5 -2 0
1 5 -4 0
1 -5 19 0
1 5 -15 0
1 -5 -16 0
1 5 6 0
1 5 1 0
1 3 -13 0
1 -3 -20 0
1 -3 -9 0
1 -3 21 0
1 -3 -19 0
1 -3 22 0
1 3 6 0
1 -3 -12 0
1 -12 -13 0
1 12 23 0
1 12 20 0
1 12 -9 0
1 12 2 0
1 12 -3 0
1 12 -19 0
1 -12 -22 0
1 -12 -24 0
1 -12 -6 0
1 12 1 0
1 16 -7 0
1 -16 -8 0
1 16 -4 0
1 16 10 0
1 16 11 0
1 16 -24 0
1 16 5 0
1 18 -7 0
1 -18 -8 0
1 18 -20 0
1 18 11 0
1 -18 -16 0
1 -15 7 0
1 -15 -14 0
1 -15 25 0
1 -15 -26 0
1 15 4 0
1 -15 10 0
1 -15 27 0
1 15 -22 0
1 -15 28 0
1 15 -5 0
1 14 -7 0
1 14 8 0
1 14 23 0
1 -14 -26 0
1 14 4 0
1 -14 10 0
1 -14 -11 0
1 14 -15 0
1 -14 -27 0
1 -14 28 0
1 -14 5 0
1 -11 -29 0
1 11 -30 0
1 11 18 0
1 11 -9 0
1 -11 31 0
1 11 -15 0
1 -11 -16 0
1 11 6 0
1 -11 32 0
1 8 29 0
1 8 30 0
1 8 -14 0
1 -8 18 0
1 -8 9 0
1 8 33 0
1 -8 -31 0
1 8 11 0
1 8 15 0
1 -8 -6 0
1 -8 32 0
1 10 -7 0
1 10 34 0
1 10 -13 0
1 10 -33 0
1 10 -19 0
1 -10 -15 0
1 -10 -16 0
1 -10 6 0
1 10 -32 0
1 -7 34 0
1 -7 -14 0
1 -7 18 0
1 7 -9 0
1 -7 -33 0
1 7 -10 0
1 -7 35 0
1 7 19 0
1 -7 16 0
1 7 -32 0
1 36 -30 0
1 -36 -26 0
1 -36 -11 0
1 -36 19 0
1 -36 27 0
1 -36 28 0
1 -30 8 0
1 30 13 0
1 -30 25 0
1 -30 26 0
1 -30 -36 0
1 -30 -11 0
1 -30 27 0
1 31 29 0
1 31 -8 0
1 -31 25 0
1 31 26 0
1 31 27 0
1 31 -28 0
1 -29 34 0
1 -29 -8 0
1 29 -25 0
1 29 26 0
1 -29 -31 0
1 29 -11 0
1 29 -27 0
1 29 28 0
1 28 29 0
1 -28 -30 0
1 28 -14 0
1 -28 -26 0
1 28 -31 0
1 28 36 0
1 -26 -29 0
1 -26 -30 0
1 -26 31 0
1 -26 -36 0
1 26 15 0
1 -26 -28 0
1 -27 29 0
1 -27 30 0
1 -27 -14 0
1 -27 -25 0
1 27 -37 0
1 -27 31 0
1 27 15 0
1 27 38 0
1 27 -32 0
1 -25 14 0
1 25 37 0
1 -25 -33 0
1 25 36 0
1 25 15 0
1 -25 -38 0
1 24 -39 0
1 24 40 0
1 -24 -41 0
1 24 -42 0
1 -24 16 0
1 24 12 0
1 20 3 0
1 -20 -41 0
1 20 -42 0
1 20 24 0
1 -20 -12 0
1 -22 -23 0
1 -22 -39 0
1 22 -43 0
1 -22 -44 0
1 -22 -3 0
1 -22 -41 0
1 22 -15 0
1 -22 45 0
1 22 46 0
1 -22 -12 0
1 -23 42 0
1 -23 -39 0
1 -23 40 0
1 -23 -43 0
1 23 44 0
1 -23 41 0
1 23 45 0
1 23 -46 0
1 23 12 0
1 -40 -42 0
1 -40 -23 0
1 40 -35 0
1 -40 -19 0
1 -40 22 0
1 -40 24 0
1 42 -13 0
1 -42 -23 0
1 42 -20 0
1 -42 35 0
1 -42 -19 0
1 42 -22 0
1 -42 -24 0
1 -39 23 0
1 39 -20 0
1 39 41 0
1 -39 -24 0
1 -41 23 0
1 41 39 0
1 -41 20 0
1 -41 -22 0
1 41 24 0
1 -19 -7 0
1 19 -13 0
1 -19 -40 0
1 19 -43 0
1 19 -44 0
1 -19 3 0
1 19 -4 0
1 -19 -10 0
1 19 36 0
1 19 -42 0
1 19 -45 0
1 19 46 0
1 19 -12 0
1 -19 5 0
1 -13 -7 0
1 13 30 0
1 13 40 0
1 -13 -43 0
1 -13 -44 0
1 13 3 0
1 13 10 0
1 13 19 0
1 13 -42 0
1 -13 -45 0
1 -13 -46 0
1 13 -12 0
1 13 -5 0
1 -35 -17 0
1 35 -7 0
1 -35 34 0
1 -35 -40 0
1 35 43 0
1 -35 -44 0
1 35 21 0
1 -35 -47 0
1 35 -10 0
1 -35 -31 0
1 -35 42 0
1 35 45 0
1 -35 -46 0
1 34 17 0
1 -34 -7 0
1 -34 -40 0
1 34 43 0
1 -34 -44 0
1 34 -21 0
1 -34 -47 0
1 -34 -10 0
1 34 42 0
1 34 -48 0
1 -44 -34 0
1 44 -13 0
1 -44 23 0
1 -44 37 0
1 44 33 0
1 -44 35 0
1 -44 19 0
1 -44 22 0
1 -44 32 0
1 -46 -34 0
1 -46 -13 0
1 46 -37 0
1 46 -33 0
1 46 19 0
1 46 22 0
1 -46 -38 0
1 46 -32 0
1 43 34 0
1 -43 -23 0
1 43 35 0
1 -43 22 0
1 -43 45 0
1 45 13 0
1 -45 -23 0
1 45 -43 0
1 45 -35 0
1 45 19 0
1 33 -17 0
1 -33 -7 0
1 -33 -8 0
1 33 25 0
1 -33 -44 0
1 -33 -10 0
1 -33 47 0
1 -33 -27 0
1 -33 46 0
1 33 48 0
1 -33 32 0
1 32 -7 0
1 32 17 0
1 -32 -25 0
1 -32 44 0
1 32 -33 0
1 -32 -47 0
1 -32 10 0
1 -32 -27 0
1 32 -46 0
1 32 48 0
1 37 -17 0
1 -37 -44 0
1 37 21 0
1 -37 -47 0
1 37 -27 0
1 -37 -46 0
1 38 17 0
1 -38 -25 0
1 -38 -44 0
1 -38 -37 0
1 38 -21 0
1 38 47 0
1 -38 -27 0
1 38 -46 0
1 47 34 0
1 -47 37 0
1 -47 -33 0
1 -47 -4 0
1 -47 -32 0
1 17 -34 0
1 -17 47 0
1 -17 -35 0
1 -17 5 0
1 17 38 0
1 -17 -32 0
1 21 -34 0
1 21 -37 0
1 -21 -3 0
1 -21 33 0
1 -21 -38 0
1 -21 -48 0
1 48 -34 0
1 -48 37 0
1 48 33 0
1 48 -35 0
1 48 32 0
